13336 12626 100 99 98 97 96 95 94 93 92 91 90 88 87 86 84 82 81 79 77 75 72 71 70 68 67 66 65 64 62 61 60 58 57 56 55 52 51 50 48 47 46 45 44 43 41 37 36 34 33 32 31 30 29 28 27 26 24 21 20 17 16 15 14 13 11 10 9 8 7 5 3 